(set-logic QF_LIA)
(set-info :ran/ran9.smt2)
(set-info :smt-lib-version 2.0)
(declare-fun x0 () Int)
(declare-fun x1 () Int)
(declare-fun x2 () Int)
(declare-fun x3 () Int)
(declare-fun x4 () Int)
(declare-fun x5 () Int)
(declare-fun x6 () Int)
(declare-fun x7 () Int)
(declare-fun x8 () Int)
(define-fun ie0 () Bool (<= (+ (* 98 x0) (* (- 40) x5) (* (- 46) x6) (* 59 x0) ) 92))
(define-fun ie1 () Bool (<= (+ (* 15 x6) (* 5 x3) ) (- 14)))
(define-fun ie2 () Bool (<= (+ (* (- 34) x2) (* 27 x3) (* 69 x6) ) (- 49)))
(define-fun ie3 () Bool (<= (+ (* (- 59) x8) (* 39 x4) ) 72))
(define-fun ie4 () Bool (<= (+ (* (- 65) x0) (* 79 x0) (* (- 9) x6) ) 38))
(define-fun ie5 () Bool (<= (+ (* (- 84) x2) (* (- 86) x1) ) 21))
(define-fun ie6 () Bool (<= (+ (* 96 x7) (* (- 50) x5) (* 51 x6) ) 11))
(define-fun ie7 () Bool (<= (+ (* 48 x5) (* 19 x5) (* (- 72) x5) (* 52 x1) ) (- 97)))
(define-fun ie8 () Bool (<= (+ (* (- 26) x2) (* (- 17) x4) ) (- 85)))
(assert ie0)
(assert ie1)
(assert ie2)
(assert ie3)
(assert ie4)
(assert ie5)
(assert ie6)
(assert ie7)
(assert ie8)
(check-sat)
(exit)
